c Choco 231113
v <instantiation id='sol1' type='solution' ><list>b[0] b[1] b[2] b[3] b[4] b[5] b[6] b[7] b[8] b[9] b[10] b[11] b[12] b[13] b[14] b[15] b[16] b[17] b[18] b[19] </list><values>1 1 1 3 3 1 3 2 1 2 2 2 2 2 2 2 1 3 3 3 </values></instantiation>

s SATISFIABLE
v <instantiation id='sol1' type='solution' ><list>b[0] b[1] b[2] b[3] b[4] b[5] b[6] b[7] b[8] b[9] b[10] b[11] b[12] b[13] b[14] b[15] b[16] b[17] b[18] b[19] </list><values>1 1 1 3 3 1 3 2 1 2 2 2 2 2 2 2 1 3 3 3 </values></instantiation>
d FOUND SOLUTIONS 1

